problems/csplib-prob056/sonet-models/noch/O2/minion/model_6_1-s2ring04-solution000001.solution
language Essence 1.3

letting network be mset({}, {}, {1, 2, 3, 4, 5}, {1, 2, 6, 7, 9}, {3, 5, 6, 8}, {3, 9, 10})
$ Here is a simple "visualisation" for the value above.
$ 
$ 
$  1  2  3  4  5
$  1  2  6  7  9
$  3  5  6  8
$  3  9 10

